results/x-long/X-n106-k14.vrp_seed-3.vrp.sol
Route #1: 22 33
Route #2: 1 104 12 9 84 75 7
Route #3: 29 72 34 11 99 49 71
Route #4: 52 92 102 24 90 26 62
Route #5: 28 66 46 79 37 27 19 78
Route #6: 86 18 41 10 16 20 56
Route #7: 60 87 43 97 93 101 103 53
Route #8: 5 44 15 76 51 100 45 96
Route #9: 14 58 88 91 36 8 48 67
Route #10: 54 77 83 2 17 69 105 64 94 82
Route #11: 68 95 38 65 80 61 47 25
Route #12: 73 32 3 55 23 98 42 30 89
Route #13: 74 21 85 13 40 31 63 57
Route #14: 35 59 4 70 6 81 50 39
Cost 26374.000000